c 3 - XORSAT
p cnf 30 120
9 11 18 0
-9 -11 18 0
-9 11 -18 0
9 -11 -18 0
2 20 26 0
-2 -20 26 0
-2 20 -26 0
2 -20 -26 0
22 25 27 0
-22 -25 27 0
-22 25 -27 0
22 -25 -27 0
1 10 20 0
-1 -10 20 0
-1 10 -20 0
1 -10 -20 0
-5 -10 -19 0
-5 10 19 0
5 -10 19 0
5 10 -19 0
-4 -6 -20 0
-4 6 20 0
4 -6 20 0
4 6 -20 0
-9 -28 -30 0
-9 28 30 0
9 -28 30 0
9 28 -30 0
24 29 30 0
-24 -29 30 0
-24 29 -30 0
24 -29 -30 0
-22 -25 -26 0
-22 25 26 0
22 -25 26 0
22 25 -26 0
1 17 27 0
-1 -17 27 0
-1 17 -27 0
1 -17 -27 0
11 12 19 0
-11 -12 19 0
-11 12 -19 0
11 -12 -19 0
5 11 28 0
-5 -11 28 0
-5 11 -28 0
5 -11 -28 0
-13 -17 -23 0
-13 17 23 0
13 -17 23 0
13 17 -23 0
-6 -21 -24 0
-6 21 24 0
6 -21 24 0
6 21 -24 0
10 15 21 0
-10 -15 21 0
-10 15 -21 0
10 -15 -21 0
7 24 26 0
-7 -24 26 0
-7 24 -26 0
7 -24 -26 0
-3 -4 -7 0
-3 4 7 0
3 -4 7 0
3 4 -7 0
-25 -27 -29 0
-25 27 29 0
25 -27 29 0
25 27 -29 0
14 18 28 0
-14 -18 28 0
-14 18 -28 0
14 -18 -28 0
13 18 19 0
-13 -18 19 0
-13 18 -19 0
13 -18 -19 0
3 5 16 0
-3 -5 16 0
-3 5 -16 0
3 -5 -16 0
12 16 23 0
-12 -16 23 0
-12 16 -23 0
12 -16 -23 0
-3 -14 -17 0
-3 14 17 0
3 -14 17 0
3 14 -17 0
2 9 15 0
-2 -9 15 0
-2 9 -15 0
2 -9 -15 0
-4 -16 -23 0
-4 16 23 0
4 -16 23 0
4 16 -23 0
-6 -8 -12 0
-6 8 12 0
6 -8 12 0
6 8 -12 0
1 7 15 0
-1 -7 15 0
-1 7 -15 0
1 -7 -15 0
8 13 22 0
-8 -13 22 0
-8 13 -22 0
8 -13 -22 0
-8 -30 -29 0
-8 30 29 0
8 -30 29 0
8 30 -29 0
2 14 21 0
-2 -14 21 0
-2 14 -21 0
2 -14 -21 0
